MARKOV
221
 2 2 2 2 2 2 2 2 2 2 2 2 2 2 2 2 2 2 2 2 2 2 2 2 2 2 2 2 2 2 2 2 2 2 2 2 2 2 2 2 2 2 2 2 2 2 2 2 2 2 2 2 2 2 2 2 2 2 2 2 2 2 2 2 2 2 2 2 2 2 2 2 2 2 2 2 2 2 2 2 2 2 2 2 2 2 2 2 2 2 2 2 2 2 2 2 2 2 2 2 2 2 2 2 2 2 2 2 2 2 2 2 2 2 2 2 2 2 2 2 2 2 2 2 2 2 2 2 2 2 2 2 2 2 2 2 2 2 2 2 2 2 2 2 2 2 2 2 2 2 2 2 2 2 2 2 2 2 2 2 2 2 2 2 2 2 2 2 2 2 2 2 2 2 2 2 2 2 2 2 2 2 2 2 2 2 2 2 2 2 2 2 2 2 2 2 2 2 2 2 2 2 2 2 2 2 2 2 2 2 2 2 2 2 2 2 2 2 2 2 2
837
1	0 
1	1 
1	2 
1	3 
1	4 
1	5 
1	6 
1	7 
1	8 
1	9 
1	10 
1	11 
1	12 
1	13 
1	14 
1	15 
1	16 
1	17 
1	18 
1	19 
1	20 
1	21 
1	22 
1	23 
1	24 
1	25 
1	26 
1	27 
1	28 
1	29 
1	30 
1	31 
1	32 
1	33 
1	34 
1	35 
1	36 
1	37 
1	38 
1	39 
1	40 
1	41 
1	42 
1	43 
1	44 
1	45 
1	46 
1	47 
1	48 
1	49 
1	50 
1	51 
1	52 
1	53 
1	54 
1	55 
1	56 
1	57 
1	58 
1	59 
1	60 
1	61 
1	62 
1	63 
1	64 
1	65 
1	66 
1	67 
1	68 
1	69 
1	70 
1	71 
1	72 
1	73 
1	74 
1	75 
1	76 
1	77 
1	78 
1	79 
1	80 
1	81 
1	82 
1	83 
1	84 
1	85 
1	86 
1	87 
1	88 
1	89 
1	90 
1	91 
1	92 
1	93 
1	94 
1	95 
1	96 
1	97 
1	98 
1	99 
1	100 
1	101 
1	102 
1	103 
1	104 
1	105 
1	106 
1	107 
1	108 
1	109 
1	110 
1	111 
1	112 
1	113 
1	114 
1	115 
1	116 
1	117 
1	118 
1	119 
1	120 
1	121 
1	122 
1	123 
1	124 
1	125 
1	126 
1	127 
1	128 
1	129 
1	130 
1	131 
1	132 
1	133 
1	134 
1	135 
1	136 
1	137 
1	138 
1	139 
1	140 
1	141 
1	142 
1	143 
1	144 
1	145 
1	146 
1	147 
1	148 
1	149 
1	150 
1	151 
1	152 
1	153 
1	154 
1	155 
1	156 
1	157 
1	158 
1	159 
1	160 
1	161 
1	162 
1	163 
1	164 
1	165 
1	166 
1	167 
1	168 
1	169 
1	170 
1	171 
1	172 
1	173 
1	174 
1	175 
1	176 
1	177 
1	178 
1	179 
1	180 
1	181 
1	182 
1	183 
1	184 
1	185 
1	186 
1	187 
1	188 
1	189 
1	190 
1	191 
1	192 
1	193 
1	194 
1	195 
1	196 
1	197 
1	198 
1	199 
1	200 
1	201 
1	202 
1	203 
1	204 
1	205 
1	206 
1	207 
1	208 
1	209 
1	210 
1	211 
1	212 
1	213 
1	214 
1	215 
1	216 
1	217 
1	218 
1	219 
1	220 
2	1 3 
2	1 48 
2	1 192 
2	1 193 
2	1 196 
2	2 4 
2	2 5 
2	2 138 
2	2 141 
2	3 4 
2	3 136 
2	3 137 
2	3 193 
2	4 136 
2	4 141 
2	5 25 
2	5 138 
2	5 143 
2	5 146 
2	6 7 
2	6 11 
2	6 87 
2	6 89 
2	6 147 
2	7 8 
2	7 89 
2	7 112 
2	7 147 
2	8 10 
2	8 89 
2	8 90 
2	8 112 
2	9 10 
2	9 58 
2	9 91 
2	9 110 
2	9 199 
2	10 90 
2	10 91 
2	10 110 
2	10 114 
2	11 87 
2	11 88 
2	11 108 
2	11 147 
2	11 149 
2	11 151 
2	12 13 
2	12 15 
2	12 16 
2	12 165 
2	12 167 
2	12 175 
2	12 176 
2	13 16 
2	13 174 
2	13 175 
2	13 177 
2	13 200 
2	13 201 
2	14 16 
2	14 105 
2	14 107 
2	14 201 
2	14 202 
2	15 16 
2	15 104 
2	15 106 
2	15 165 
2	16 106 
2	16 107 
2	16 201 
2	17 20 
2	17 21 
2	17 87 
2	17 89 
2	17 156 
2	18 20 
2	18 90 
2	18 91 
2	18 155 
2	18 194 
2	18 197 
2	19 21 
2	19 88 
2	19 157 
2	19 181 
2	19 182 
2	20 89 
2	20 90 
2	20 155 
2	20 156 
2	21 87 
2	21 88 
2	21 156 
2	21 157 
2	22 23 
2	22 43 
2	22 44 
2	22 46 
2	22 80 
2	23 24 
2	23 44 
2	23 177 
2	23 178 
2	24 167 
2	24 174 
2	24 175 
2	24 176 
2	24 177 
2	25 26 
2	25 77 
2	25 81 
2	25 143 
2	26 27 
2	26 76 
2	26 78 
2	26 81 
2	27 78 
2	27 80 
2	28 29 
2	28 34 
2	28 187 
2	28 188 
2	29 128 
2	29 132 
2	29 133 
2	29 187 
2	30 32 
2	30 33 
2	30 155 
2	30 156 
2	30 170 
2	30 172 
2	31 33 
2	31 157 
2	31 168 
2	31 169 
2	31 181 
2	32 155 
2	32 162 
2	32 171 
2	32 172 
2	32 195 
2	33 156 
2	33 157 
2	33 168 
2	33 170 
2	33 173 
2	34 35 
2	34 188 
2	34 217 
2	35 36 
2	35 217 
2	35 219 
2	35 220 
2	36 183 
2	36 190 
2	36 219 
2	37 42 
2	37 86 
2	37 158 
2	37 159 
2	37 161 
2	38 39 
2	38 42 
2	38 62 
2	38 83 
2	38 84 
2	39 41 
2	39 61 
2	39 62 
2	39 82 
2	39 84 
2	40 41 
2	40 64 
2	40 85 
2	40 164 
2	40 166 
2	41 63 
2	41 82 
2	41 85 
2	42 65 
2	42 83 
2	42 86 
2	42 158 
2	43 44 
2	43 45 
2	43 46 
2	43 120 
2	44 45 
2	44 178 
2	45 117 
2	45 120 
2	45 178 
2	46 78 
2	46 80 
2	46 116 
2	46 120 
2	47 49 
2	47 56 
2	47 59 
2	47 153 
2	48 49 
2	48 196 
2	48 198 
2	49 56 
2	49 198 
2	50 53 
2	50 54 
2	50 104 
2	50 106 
2	50 163 
2	51 52 
2	51 53 
2	51 54 
2	51 55 
2	51 61 
2	51 63 
2	52 55 
2	52 61 
2	52 62 
2	52 65 
2	52 93 
2	52 95 
2	53 54 
2	53 63 
2	53 64 
2	53 163 
2	53 166 
2	54 55 
2	54 106 
2	54 107 
2	55 95 
2	55 102 
2	55 105 
2	55 107 
2	56 58 
2	56 59 
2	56 198 
2	57 58 
2	57 59 
2	57 110 
2	57 111 
2	57 152 
2	57 153 
2	58 59 
2	58 110 
2	58 198 
2	58 199 
2	59 153 
2	60 65 
2	60 93 
2	60 94 
2	60 158 
2	60 159 
2	61 62 
2	61 63 
2	62 65 
2	63 64 
2	64 166 
2	65 93 
2	65 158 
2	66 70 
2	66 71 
2	67 68 
2	67 71 
2	67 72 
2	67 74 
2	67 190 
2	68 69 
2	68 70 
2	68 71 
2	68 72 
2	68 75 
2	69 70 
2	69 75 
2	69 167 
2	70 71 
2	71 190 
2	72 73 
2	72 74 
2	72 75 
2	72 165 
2	72 167 
2	73 74 
2	73 165 
2	73 185 
2	74 183 
2	74 185 
2	74 190 
2	75 167 
2	76 78 
2	76 81 
2	76 116 
2	77 79 
2	77 81 
2	77 143 
2	78 80 
2	78 116 
2	79 81 
2	79 101 
2	79 115 
2	79 143 
2	79 145 
2	81 115 
2	81 116 
2	82 84 
2	82 85 
2	82 214 
2	82 215 
2	83 84 
2	83 86 
2	83 98 
2	83 99 
2	84 98 
2	84 214 
2	85 164 
2	85 213 
2	85 215 
2	86 96 
2	86 99 
2	86 160 
2	86 161 
2	87 88 
2	87 89 
2	88 108 
2	88 109 
2	88 182 
2	89 90 
2	90 91 
2	91 197 
2	91 199 
2	92 93 
2	92 94 
2	92 95 
2	92 101 
2	92 103 
2	92 145 
2	93 94 
2	93 95 
2	94 144 
2	94 145 
2	94 159 
2	95 102 
2	95 103 
2	96 99 
2	96 160 
2	96 162 
2	96 171 
2	97 98 
2	97 100 
2	97 168 
2	97 170 
2	97 173 
2	97 214 
2	97 215 
2	98 99 
2	98 170 
2	98 172 
2	98 214 
2	99 171 
2	99 172 
2	100 168 
2	100 169 
2	100 180 
2	100 213 
2	100 215 
2	101 103 
2	101 115 
2	101 118 
2	101 145 
2	102 103 
2	102 105 
2	102 119 
2	102 202 
2	103 118 
2	103 119 
2	104 106 
2	104 163 
2	104 165 
2	105 107 
2	105 202 
2	106 107 
2	108 109 
2	108 149 
2	109 149 
2	109 179 
2	109 182 
2	110 111 
2	110 114 
2	111 114 
2	111 152 
2	112 113 
2	112 114 
2	112 147 
2	113 114 
2	113 147 
2	113 150 
2	113 152 
2	113 154 
2	114 152 
2	115 116 
2	115 118 
2	115 120 
2	116 120 
2	117 118 
2	117 119 
2	117 120 
2	117 178 
2	117 200 
2	117 202 
2	118 119 
2	118 120 
2	119 202 
2	121 124 
2	121 125 
2	121 127 
2	121 129 
2	121 180 
2	121 181 
2	122 123 
2	122 126 
2	122 127 
2	122 191 
2	122 210 
2	123 124 
2	123 127 
2	123 133 
2	124 127 
2	124 128 
2	124 129 
2	124 133 
2	125 126 
2	125 127 
2	125 181 
2	126 127 
2	126 181 
2	126 182 
2	126 210 
2	126 211 
2	128 129 
2	128 130 
2	128 132 
2	128 133 
2	129 130 
2	129 180 
2	130 131 
2	130 132 
2	130 180 
2	131 132 
2	131 164 
2	131 180 
2	131 187 
2	131 189 
2	132 187 
2	134 135 
2	134 137 
2	134 162 
2	134 193 
2	134 195 
2	135 136 
2	135 137 
2	135 140 
2	135 160 
2	135 162 
2	136 137 
2	136 140 
2	136 141 
2	137 193 
2	138 139 
2	138 141 
2	138 142 
2	138 146 
2	139 140 
2	139 141 
2	139 142 
2	139 161 
2	140 141 
2	140 160 
2	140 161 
2	142 144 
2	142 146 
2	142 159 
2	142 161 
2	143 144 
2	143 145 
2	143 146 
2	144 145 
2	144 146 
2	144 159 
2	147 150 
2	147 151 
2	148 149 
2	148 151 
2	148 154 
2	148 179 
2	149 151 
2	149 179 
2	150 151 
2	150 154 
2	151 154 
2	152 153 
2	152 154 
2	154 179 
2	155 156 
2	155 194 
2	155 195 
2	156 157 
2	157 181 
2	158 159 
2	159 161 
2	160 161 
2	160 162 
2	162 171 
2	162 195 
2	163 165 
2	163 166 
2	163 184 
2	163 185 
2	163 216 
2	164 166 
2	164 180 
2	164 186 
2	164 189 
2	164 213 
2	165 167 
2	165 185 
2	166 186 
2	166 216 
2	166 218 
2	167 176 
2	168 169 
2	168 173 
2	169 180 
2	169 181 
2	170 172 
2	170 173 
2	171 172 
2	174 175 
2	174 177 
2	175 176 
2	177 178 
2	177 200 
2	178 200 
2	179 182 
2	179 204 
2	179 206 
2	179 207 
2	180 181 
2	180 213 
2	181 182 
2	182 206 
2	182 211 
2	183 184 
2	183 185 
2	183 190 
2	183 219 
2	184 185 
2	184 216 
2	184 219 
2	186 188 
2	186 189 
2	186 217 
2	186 218 
2	187 188 
2	187 189 
2	188 189 
2	188 217 
2	191 205 
2	191 210 
2	191 212 
2	192 193 
2	192 194 
2	192 195 
2	192 196 
2	193 195 
2	194 195 
2	194 196 
2	194 197 
2	196 197 
2	196 198 
2	196 199 
2	197 199 
2	198 199 
2	200 201 
2	200 202 
2	201 202 
2	203 204 
2	203 207 
2	203 208 
2	203 209 
2	204 207 
2	205 206 
2	205 208 
2	205 210 
2	205 211 
2	205 212 
2	206 207 
2	206 208 
2	206 211 
2	207 208 
2	208 209 
2	208 212 
2	209 212 
2	210 211 
2	213 215 
2	214 215 
2	216 218 
2	216 219 
2	216 220 
2	217 218 
2	217 220 
2	218 220 
2	219 220 
0	

2
 0.252912 1
2
 0.217683 1
2
 0.277692 1
2
 0.382206 1
2
 0.272052 1
2
 1 0.62898
2
 0.0520478 1
2
 0.046394 1
2
 0.0443499 1
2
 0.0946972 1
2
 0.0349868 1
2
 0.134852 1
2
 0.0418132 1
2
 0.0981399 1
2
 0.084801 1
2
 0.0721323 1
2
 0.243708 1
2
 1 0.549952
2
 0.262525 1
2
 0.225805 1
2
 1 0.656582
2
 0.590568 1
2
 1 0.0879526
2
 1 0.369329
2
 1 0.755813
2
 1 0.473478
2
 1 0.353595
2
 1 0.343868
2
 0.11382 1
2
 0.0753573 1
2
 0.255082 1
2
 0.0305606 1
2
 0.0732477 1
2
 0.166792 1
2
 0.0774141 1
2
 0.0529481 1
2
 1 0.895881
2
 0.815374 1
2
 0.234573 1
2
 0.332936 1
2
 0.149986 1
2
 0.673528 1
2
 1 0.970906
2
 0.625912 1
2
 0.851153 1
2
 0.474737 1
2
 1 0.774332
2
 0.167462 1
2
 0.344153 1
2
 0.407884 1
2
 0.0488136 1
2
 0.111108 1
2
 0.118217 1
2
 0.0526461 1
2
 0.0453274 1
2
 0.0689103 1
2
 1 0.970088
2
 1 0.197958
2
 1 0.357142
2
 1 0.251085
2
 1 0.998609
2
 0.340337 1
2
 0.394163 1
2
 0.196911 1
2
 0.0791801 1
2
 0.525953 1
2
 0.113384 1
2
 1 0.79057
2
 0.894206 1
2
 1 0.738697
2
 1 0.340946
2
 0.574236 1
2
 1 0.749307
2
 1 0.979533
2
 1 0.688389
2
 0.710258 1
2
 1 0.421596
2
 1 0.266514
2
 1 0.889853
2
 0.286049 1
2
 1 0.527678
2
 1 0.602608
2
 0.975017 1
2
 1 0.641262
2
 0.577904 1
2
 0.43733 1
2
 1 0.516165
2
 1 0.28835
2
 0.913215 1
2
 1 0.545219
2
 1 0.39928
2
 0.940697 1
2
 0.0523282 1
2
 0.257105 1
2
 0.0574072 1
2
 0.145267 1
2
 0.367893 1
2
 0.0972901 1
2
 0.119207 1
2
 0.174934 1
2
 0.075649 1
2
 0.837031 1
2
 0.230861 1
2
 0.258445 1
2
 0.256518 1
2
 0.180769 1
2
 0.34503 1
2
 0.268747 1
2
 0.696819 1
2
 0.515158 1
2
 0.258651 1
2
 0.40474 1
2
 0.426577 1
2
 0.704188 1
2
 0.225565 1
2
 0.593565 1
2
 0.590519 1
2
 0.279805 1
2
 0.273904 1
2
 0.14401 1
2
 0.0961296 1
2
 0.760676 1
2
 0.589276 1
2
 0.252368 1
2
 0.564099 1
2
 0.650115 1
2
 1 0.931013
2
 1 0.433422
2
 0.803477 1
2
 0.643151 1
2
 0.4923 1
2
 0.524673 1
2
 1 0.663257
2
 0.101779 1
2
 1 0.210769
2
 1 0.171176
2
 1 0.227304
2
 1 0.32502
2
 1 0.30366
2
 1 0.274321
2
 1 0.251618
2
 1 0.373067
2
 1 0.232138
2
 1 0.334179
2
 1 0.176602
2
 1 0.994114
2
 1 0.224892
2
 0.414611 1
2
 0.157823 1
2
 0.0377394 1
2
 0.284216 1
2
 0.118509 1
2
 0.117857 1
2
 0.648696 1
2
 0.30579 1
2
 0.470242 1
2
 0.635113 1
2
 0.305539 1
2
 0.684143 1
2
 0.368286 1
2
 1 0.462006
2
 1 0.395714
2
 1 0.505185
2
 0.165296 1
2
 0.135478 1
2
 0.303479 1
2
 0.266153 1
2
 0.957766 1
2
 0.162572 1
2
 0.124785 1
2
 0.14777 1
2
 1 0.833194
2
 1 0.899973
2
 0.0734693 1
2
 1 0.84232
2
 0.981557 1
2
 0.104504 1
2
 0.816237 1
2
 1 0.952591
2
 0.462445 1
2
 0.27119 1
2
 0.414157 1
2
 0.398233 1
2
 1 0.465862
2
 0.850961 1
2
 1 0.902689
2
 0.79833 1
2
 1 0.376398
2
 1 0.521568
2
 0.63863 1
2
 1 0.520073
2
 1 0.661544
2
 1 0.254052
2
 1 0.216491
2
 1 0.426299
2
 0.919644 1
2
 1 0.360838
2
 1 0.743709
2
 1 0.542491
2
 0.873342 1
2
 0.212975 1
2
 0.462987 1
2
 0.265989 1
2
 1 0.279579
2
 1 0.510644
2
 1 0.496778
2
 0.976467 1
2
 1 0.661281
2
 1 0.5186
2
 1 0.447637
2
 0.935219 1
2
 1 0.970796
2
 0.508521 1
2
 0.0378 1
2
 0.572883 1
2
 0.388756 1
2
 1 0.753547
2
 1 0.586083
2
 0.888529 1
2
 1 0.719399
2
 1 0.402239
4
 1 0.306268 0.306268 0.961523
4
 1 0.299469 0.299469 0.964713
4
 1 0.300964 0.300964 0.967371
4
 1 0.302806 0.302806 0.96634
4
 1 0.29889 0.29889 0.968512
4
 1 0.321655 0.321655 0.954854
4
 1 0.330035 0.330035 0.95127
4
 1 0.325218 0.325218 0.956035
4
 1 0.321922 0.321922 0.957593
4
 1 0.313744 0.313744 0.958344
4
 1 0.31132 0.31132 0.962227
4
 1 0.308669 0.308669 0.963578
4
 1 0.306417 0.306417 0.964769
4
 1 0.315161 0.315161 0.960608
4
 1 0.317878 0.317878 0.959476
4
 1 0.338922 0.338922 0.947806
4
 1 0.3295 0.3295 0.95432
4
 1 0.334658 0.334658 0.952287
4
 1 0.332215 0.332215 0.953463
4
 0.976901 0.265193 0.265193 1
4
 0.968653 0.259895 0.259895 1
4
 0.971485 0.263165 0.263165 1
4
 0.976955 0.266647 0.266647 1
4
 0.97296 0.261211 0.261211 1
4
 0.984943 0.270422 0.270422 1
4
 0.981134 0.269414 0.269414 1
4
 0.982899 0.267589 0.267589 1
4
 0.977121 0.263921 0.263921 1
4
 0.993329 0.275935 0.275935 1
4
 0.984998 0.271904 0.271904 1
4
 0.990878 0.275811 0.275811 1
4
 0.98677 0.270062 0.270062 1
4
 1 0.281173 0.281173 0.99816
4
 1 0.28342 0.28342 0.989787
4
 1 0.284103 0.284103 0.994915
4
 1 0.280922 0.280922 0.994858
4
 1 0.285307 0.285307 0.989566
4
 0.995395 0.278856 0.278856 1
4
 1 0.282495 0.282495 0.998889
4
 1 0.279331 0.279331 0.998832
4
 0.995675 0.275343 0.275343 1
4
 0.967402 0.260584 0.260584 1
4
 0.961715 0.257012 0.257012 1
4
 0.961122 0.255275 0.255275 1
4
 0.968871 0.258648 0.258648 1
4
 0.959666 0.252933 0.252933 1
4
 0.963446 0.254421 0.254421 1
4
 0.988977 0.319673 0.319673 1
4
 0.981399 0.312193 0.312193 1
4
 0.986648 0.316116 0.316116 1
4
 0.977549 0.309334 0.309334 1
4
 0.979801 0.314761 0.314761 1
4
 0.98709 0.320484 0.320484 1
4
 0.983052 0.317635 0.317635 1
4
 0.992705 0.320571 0.320571 1
4
 0.99695 0.327699 0.327699 1
4
 0.99315 0.325 0.325 1
4
 1 0.330699 0.330699 0.998788
4
 1 0.329254 0.329254 0.99733
4
 0.998351 0.325506 0.325506 1
4
 0.995273 0.319944 0.319944 1
4
 1 0.322114 0.322114 0.998506
4
 0.997288 0.319432 0.319432 1
4
 1 0.324566 0.324566 0.999067
4
 1 0.325615 0.325615 0.995427
4
 0.985098 0.31307 0.31307 1
4
 0.978318 0.306206 0.306206 1
4
 0.982668 0.309299 0.309299 1
4
 0.976013 0.306353 0.306353 1
4
 0.987924 0.313185 0.313185 1
4
 0.992372 0.316496 0.316496 1
4
 0.996 0.321884 0.321884 1
4
 0.987211 0.27747 0.27747 1
4
 0.976187 0.270271 0.270271 1
4
 0.975913 0.268746 0.268746 1
4
 0.981408 0.272302 0.272302 1
4
 0.982897 0.275741 0.275741 1
4
 0.998529 0.285259 0.285259 1
4
 0.998585 0.283967 0.283967 1
4
 1 0.286753 0.286753 0.995698
4
 1 0.289154 0.289154 0.995698
4
 1 0.291521 0.291521 0.988678
4
 1 0.28953 0.28953 0.990289
4
 0.965285 0.263258 0.263258 1
4
 0.959342 0.258185 0.258185 1
4
 0.962146 0.262307 0.262307 1
4
 0.956114 0.258732 0.258732 1
4
 0.954291 0.254674 0.254674 1
4
 0.98699 0.276033 0.276033 1
4
 0.992882 0.279999 0.279999 1
4
 0.998585 0.286345 0.286345 1
4
 0.988487 0.279519 0.279519 1
4
 0.970503 0.26536 0.26536 1
4
 0.964798 0.261723 0.261723 1
4
 0.977448 0.272267 0.272267 1
4
 0.967618 0.265901 0.265901 1
4
 1 0.348993 0.348993 0.970756
4
 1 0.350645 0.350645 0.963262
4
 1 0.348607 0.348607 0.968904
4
 1 0.352475 0.352475 0.959052
4
 1 0.357043 0.357043 0.953201
4
 1 0.339044 0.339044 0.992416
4
 1 0.343796 0.343796 0.979241
4
 1 0.339902 0.339902 0.986859
4
 1 0.341012 0.341012 0.983484
4
 0.986369 0.323369 0.323369 1
4
 0.997509 0.331982 0.331982 1
4
 0.993707 0.329248 0.329248 1
4
 0.989642 0.326321 0.326321 1
4
 1 0.334833 0.334833 0.998228
4
 1 0.348047 0.348047 0.944354
4
 1 0.342105 0.342105 0.948978
4
 1 0.344242 0.344242 0.948819
4
 1 0.339202 0.339202 0.950524
4
 1 0.357407 0.357407 0.940704
4
 1 0.35135 0.35135 0.94616
4
 1 0.353811 0.353811 0.94547
4
 1 0.348774 0.348774 0.947116
4
 1 0.358605 0.358605 0.943508
4
 1 0.361241 0.361241 0.942344
4
 0.934403 0.257422 0.257422 1
4
 0.936608 0.262497 0.262497 1
4
 0.939348 0.262278 0.262278 1
4
 0.93998 0.264186 0.264186 1
4
 0.935506 0.254798 0.254798 1
4
 0.936504 0.257059 0.257059 1
4
 0.931366 0.25141 0.25141 1
4
 0.937662 0.259269 0.259269 1
4
 0.998303 0.289516 0.289516 1
4
 0.984332 0.280026 0.280026 1
4
 0.997967 0.288228 0.288228 1
4
 0.987876 0.281358 0.281358 1
4
 0.989819 0.285021 0.285021 1
4
 0.994889 0.288547 0.288547 1
4
 0.969957 0.270367 0.270367 1
4
 0.96366 0.265301 0.265301 1
4
 0.966694 0.269588 0.269588 1
4
 0.962361 0.266768 0.266768 1
4
 0.957618 0.261685 0.261685 1
4
 1 0.291436 0.291436 0.995308
4
 1 0.296218 0.296218 0.989679
4
 1 0.294772 0.294772 0.993298
4
 1 0.292662 0.292662 0.998387
4
 1 0.295508 0.295508 0.987514
4
 0.980636 0.276463 0.276463 1
4
 0.970774 0.269998 0.269998 1
4
 0.973831 0.274361 0.274361 1
4
 0.982564 0.280062 0.280062 1
4
 0.978215 0.277262 0.277262 1
4
 0.938713 0.26787 0.26787 1
4
 0.940508 0.266303 0.266303 1
4
 0.941512 0.268218 0.268218 1
4
 0.941774 0.274733 0.274733 1
4
 0.943098 0.271532 0.271532 1
4
 0.944051 0.274728 0.274728 1
4
 0.944635 0.273845 0.273845 1
4
 0.94697 0.280905 0.280905 1
4
 0.944792 0.28164 0.28164 1
4
 0.945536 0.278328 0.278328 1
4
 1 0.308684 0.308684 0.992242
4
 1 0.307914 0.307914 0.989404
4
 1 0.312331 0.312331 0.987019
4
 1 0.314347 0.314347 0.98254
4
 1 0.311405 0.311405 0.983809
4
 0.990205 0.298618 0.298618 1
4
 0.99886 0.304765 0.304765 1
4
 0.995556 0.304535 0.304535 1
4
 0.996396 0.301094 0.301094 1
4
 0.991373 0.297553 0.297553 1
4
 0.981624 0.292596 0.292596 1
4
 0.987262 0.298729 0.298729 1
4
 0.991372 0.301548 0.301548 1
4
 0.981734 0.290922 0.290922 1
4
 0.987207 0.294634 0.294634 1
4
 0.972899 0.28664 0.28664 1
4
 0.969735 0.286557 0.286557 1
4
 0.96756 0.281278 0.281278 1
4
 0.964414 0.279794 0.279794 1
4
 0.96631 0.284384 0.284384 1
4
 0.978377 0.292376 0.292376 1
4
 0.977334 0.287878 0.287878 1
4
 0.971862 0.284119 0.284119 1
4
 1 0.309602 0.309602 0.99548
4
 1 0.304008 0.304008 0.999119
4
 1 0.306191 0.306191 0.993803
4
 1 0.310582 0.310582 0.991407
4
 1 0.345423 0.345423 0.971682
4
 1 0.344781 0.344781 0.970373
4
 1 0.349256 0.349256 0.961802
4
 1 0.344343 0.344343 0.967435
4
 1 0.342776 0.342776 0.976057
4
 1 0.340634 0.340634 0.981608
4
 1 0.339536 0.339536 0.976659
4
 1 0.341705 0.341705 0.971791
4
 1 0.34 0.34 0.980286
4
 1 0.353032 0.353032 0.952932
4
 1 0.355628 0.355628 0.951756
4
 1 0.348078 0.348078 0.958728
4
 1 0.34614 0.34614 0.963207
4
 1 0.288426 0.288426 0.969925
4
 1 0.286675 0.286675 0.973854
4
 1 0.284011 0.284011 0.97555
4
 1 0.282719 0.282719 0.975714
4
 1 0.29366 0.29366 0.967533
4
 1 0.29574 0.29574 0.970145
4
 1 0.293923 0.293923 0.970744
4
 1 0.289265 0.289265 0.972652
4
 1 0.291291 0.291291 0.971943
4
 0.975248 0.297344 0.297344 1
4
 0.98074 0.302789 0.302789 1
4
 0.975905 0.301008 0.301008 1
4
 0.980244 0.304049 0.304049 1
4
 0.971531 0.296373 0.296373 1
4
 0.994047 0.309382 0.309382 1
4
 0.981842 0.300564 0.300564 1
4
 0.987371 0.306068 0.306068 1
4
 0.994046 0.310934 0.310934 1
4
 0.98837 0.303537 0.303537 1
4
 0.983885 0.300222 0.300222 1
4
 0.999868 0.315108 0.315108 1
4
 0.994159 0.307612 0.307612 1
4
 0.998298 0.310515 0.310515 1
4
 1 0.312924 0.312924 0.997215
4
 1 0.316056 0.316056 0.994029
4
 1 0.317631 0.317631 0.993806
4
 0.98096 0.301336 0.301336 1
4
 0.977497 0.295581 0.295581 1
4
 0.97317 0.292625 0.292625 1
4
 0.97175 0.294951 0.294951 1
4
 0.969734 0.290405 0.290405 1
4
 0.993153 0.311732 0.311732 1
4
 0.985985 0.308131 0.308131 1
4
 0.990424 0.311388 0.311388 1
4
 1 0.319223 0.319223 0.993806
4
 1 0.320714 0.320714 0.994309
4
 1 0.319049 0.319049 0.998673
4
 0.99712 0.316338 0.316338 1
4
 1 0.285783 0.285783 0.98099
4
 1 0.284837 0.284837 0.978294
4
 1 0.289523 0.289523 0.975881
4
 1 0.281302 0.281302 0.986956
4
 1 0.280372 0.280372 0.984244
4
 1 0.278823 0.278823 0.992012
4
 1 0.277015 0.277015 0.993126
4
 1 0.273901 0.273901 0.99855
4
 1 0.279096 0.279096 0.984409
4
 1 0.283127 0.283127 0.982698
4
 1 0.281563 0.281563 0.990454
4
 1 0.287785 0.287785 0.980274
4
 1 0.285958 0.285958 0.985185
4
 1 0.280906 0.280906 0.980162
4
 1 0.314919 0.314919 0.989295
4
 1 0.318071 0.318071 0.986134
4
 1 0.320706 0.320706 0.979841
4
 1 0.315916 0.315916 0.985248
4
 1 0.317955 0.317955 0.980777
4
 0.992597 0.304648 0.304648 1
4
 0.983996 0.298504 0.298504 1
4
 1 0.310396 0.310396 0.998784
4
 0.975195 0.292292 0.292292 1
4
 0.96745 0.287174 0.287174 1
4
 1 0.315397 0.315397 0.99113
4
 1 0.31326 0.31326 0.990239
4
 0.954012 0.299181 0.299181 1
4
 0.950217 0.294334 0.294334 1
4
 0.957448 0.297116 0.297116 1
4
 0.952622 0.293133 0.293133 1
4
 0.960086 0.297445 0.297445 1
4
 0.954604 0.291825 0.291825 1
4
 0.950485 0.289175 0.289175 1
4
 0.964949 0.306045 0.306045 1
4
 0.959223 0.30171 0.30171 1
4
 0.955407 0.296821 0.296821 1
4
 0.962893 0.301187 0.301187 1
4
 0.964896 0.304376 0.304376 1
4
 0.96392 0.306914 0.306914 1
4
 0.96962 0.309627 0.309627 1
4
 0.973166 0.312805 0.312805 1
4
 0.954388 0.297665 0.297665 1
4
 0.948459 0.288888 0.288888 1
4
 0.964951 0.299483 0.299483 1
4
 0.960033 0.295823 0.295823 1
4
 0.967555 0.304713 0.304713 1
4
 0.96886 0.302532 0.302532 1
4
 0.971092 0.30784 0.30784 1
4
 0.95944 0.293824 0.293824 1
4
 0.968262 0.300488 0.300488 1
4
 0.962516 0.294753 0.294753 1
4
 0.952623 0.286848 0.286848 1
4
 0.957611 0.291152 0.291152 1
4
 0.950432 0.287599 0.287599 1
4
 0.973112 0.3111 0.3111 1
4
 1 0.352528 0.352528 0.94898
4
 1 0.347509 0.347509 0.950633
4
 1 0.34758 0.34758 0.954752
4
 1 0.33905 0.33905 0.955824
4
 1 0.342819 0.342819 0.951754
4
 1 0.337801 0.337801 0.953464
4
 1 0.357607 0.357607 0.947118
4
 1 0.350015 0.350015 0.954056
4
 1 0.341168 0.341168 0.955663
4
 1 0.335264 0.335264 0.964341
4
 1 0.33862 0.33862 0.96126
4
 1 0.336173 0.336173 0.957381
4
 1 0.334313 0.334313 0.962069
4
 1 0.342385 0.342385 0.957167
4
 1 0.345032 0.345032 0.955717
4
 0.982893 0.289883 0.289883 1
4
 0.971971 0.282493 0.282493 1
4
 0.981184 0.287168 0.287168 1
4
 0.976238 0.283791 0.283791 1
4
 0.99338 0.297076 0.297076 1
4
 1 0.30325 0.30325 0.996261
4
 0.996061 0.296771 0.296771 1
4
 1 0.299745 0.299745 0.999454
4
 0.99104 0.293281 0.293281 1
4
 0.986654 0.290833 0.290833 1
4
 0.963386 0.277334 0.277334 1
4
 0.965336 0.276428 0.276428 1
4
 0.970772 0.280085 0.280085 1
4
 1 0.303844 0.303844 0.989626
4
 1 0.301896 0.301896 0.994137
4
 1 0.30623 0.30623 0.986076
4
 1 0.30889 0.30889 0.985357
4
 0.964527 0.260246 0.260246 1
4
 0.975694 0.267353 0.267353 1
4
 0.958265 0.254944 0.254944 1
4
 0.955686 0.253509 0.253509 1
4
 0.953809 0.253189 0.253189 1
4
 0.987046 0.274783 0.274783 1
4
 0.998642 0.282682 0.282682 1
4
 1 0.288203 0.288203 0.990233
4
 1 0.286648 0.286648 0.990289
4
 1 0.32255 0.32255 0.98199
4
 1 0.325222 0.325222 0.975724
4
 1 0.324157 0.324157 0.98177
4
 1 0.329845 0.329845 0.972498
4
 1 0.327885 0.327885 0.977315
4
 1 0.328909 0.328909 0.970207
4
 1 0.321193 0.321193 0.981659
4
 1 0.320141 0.320141 0.987742
4
 1 0.324736 0.324736 0.971241
4
 1 0.327525 0.327525 0.969879
4
 1 0.321075 0.321075 0.976326
4
 1 0.323238 0.323238 0.98802
4
 1 0.325436 0.325436 0.983039
4
 1 0.300332 0.300332 0.992798
4
 1 0.304643 0.304643 0.984747
4
 1 0.301053 0.301053 0.986352
4
 1 0.299583 0.299583 0.989958
4
 0.987541 0.288159 0.288159 1
4
 0.974268 0.278616 0.278616 1
4
 0.975965 0.278451 0.278451 1
4
 0.984718 0.284237 0.284237 1
4
 0.980359 0.281395 0.281395 1
4
 0.98317 0.285754 0.285754 1
4
 0.978214 0.282393 0.282393 1
4
 0.99819 0.296077 0.296077 1
4
 0.990875 0.288992 0.288992 1
4
 0.995951 0.292567 0.292567 1
4
 0.989317 0.290534 0.290534 1
4
 1 0.297662 0.297662 0.994471
4
 1 0.295531 0.295531 0.999566
4
 0.968867 0.273733 0.273733 1
4
 0.964524 0.27087 0.27087 1
4
 0.961712 0.270194 0.270194 1
4
 0.965662 0.273984 0.273984 1
4
 0.971099 0.277609 0.277609 1
4
 1 0.331146 0.331146 0.973755
4
 1 0.33646 0.33646 0.965859
4
 1 0.334072 0.334072 0.971243
4
 1 0.33218 0.33218 0.966672
4
 1 0.326955 0.326955 0.983536
4
 1 0.323061 0.323061 0.992859
4
 1 0.327762 0.327762 0.986136
4
 1 0.326573 0.326573 0.989798
4
 1 0.332088 0.332088 0.976055
4
 1 0.329991 0.329991 0.981165
4
 0.981124 0.306319 0.306319 1
4
 0.972404 0.298586 0.298586 1
4
 0.974481 0.303401 0.303401 1
4
 0.998577 0.319119 0.319119 1
4
 1 0.324877 0.324877 0.994142
4
 0.989923 0.312684 0.312684 1
4
 0.955096 0.251796 0.251796 1
4
 0.956224 0.250898 0.250898 1
4
 0.95365 0.249486 0.249486 1
4
 0.949162 0.246007 0.246007 1
4
 0.950655 0.250063 0.250063 1
4
 1 0.277271 0.277271 0.996646
4
 0.99898 0.27601 0.27601 1
4
 0.997859 0.273912 0.273912 1
4
 0.996795 0.271503 0.271503 1
4
 0.983396 0.265151 0.265151 1
4
 0.9891 0.269483 0.269483 1
4
 0.978933 0.26357 0.26357 1
4
 0.987769 0.267383 0.267383 1
4
 0.977615 0.261516 0.261516 1
4
 0.976793 0.259699 0.259699 1
4
 0.986716 0.265031 0.265031 1
4
 0.97236 0.256008 0.256008 1
4
 0.992439 0.269362 0.269362 1
4
 1 0.342455 0.342455 0.961315
4
 1 0.337417 0.337417 0.96814
4
 1 0.340549 0.340549 0.965806
4
 1 0.343182 0.343182 0.964343
4
 1 0.335986 0.335986 0.976055
4
 1 0.333865 0.333865 0.981166
4
 1 0.339105 0.339105 0.973702
4
 1 0.337414 0.337414 0.982214
4
 1 0.334847 0.334847 0.984146
4
 1 0.332653 0.332653 0.984809
4
 1 0.332907 0.332907 0.978634
4
 1 0.338133 0.338133 0.97119
4
 1 0.329604 0.329604 0.987411
4
 0.940511 0.253311 0.253311 1
4
 0.945861 0.255075 0.255075 1
4
 0.941674 0.252525 0.252525 1
4
 0.947082 0.258678 0.258678 1
4
 0.950972 0.261434 0.261434 1
4
 0.949053 0.257095 0.257095 1
4
 0.930009 0.242659 0.242659 1
4
 0.93635 0.244992 0.244992 1
4
 0.934196 0.245224 0.245224 1
4
 0.92683 0.237849 0.237849 1
4
 0.930167 0.240178 0.240178 1
4
 0.932309 0.246849 0.246849 1
4
 0.933462 0.246083 0.246083 1
4
 0.929643 0.245937 0.245937 1
4
 0.936507 0.249459 0.249459 1
4
 0.936821 0.252671 0.252671 1
4
 0.941885 0.255538 0.255538 1
4
 0.932675 0.249311 0.249311 1
4
 0.944004 0.250959 0.250959 1
4
 0.941833 0.251196 0.251196 1
4
 0.949213 0.255743 0.255743 1
4
 0.939826 0.248449 0.248449 1
4
 0.94719 0.252946 0.252946 1
4
 0.945384 0.248979 0.248979 1
4
 0.935772 0.243337 0.243337 1
4
 0.941411 0.246537 0.246537 1
4
 0.943367 0.258024 0.258024 1
4
 0.943843 0.259539 0.259539 1
4
 0.939296 0.257392 0.257392 1
4
 0.934142 0.251737 0.251737 1
4
 0.948945 0.262484 0.262484 1
4
 0.952361 0.263732 0.263732 1
4
 0.950171 0.265748 0.265748 1
4
 0.94485 0.261841 0.261841 1
4
 0.952843 0.26528 0.26528 1
4
 0.945593 0.263551 0.263551 1
4
 0.955574 0.271645 0.271645 1
4
 0.953592 0.267012 0.267012 1
4
 0.946761 0.265817 0.265817 1
4
 0.951718 0.269355 0.269355 1
4
 0.94146 0.261908 0.261908 1
4
 1 0.305995 0.305995 0.975172
4
 1 0.305462 0.305462 0.971837
4
 1 0.301672 0.301672 0.980443
4
 1 0.303233 0.303233 0.973038
4
 1 0.300949 0.300949 0.978298
4
 1 0.310605 0.310605 0.969168
4
 1 0.30796 0.30796 0.970529
4
 1 0.310648 0.310648 0.972931
4
 1 0.307765 0.307765 0.97753
4
 1 0.304138 0.304138 0.979123
4
 1 0.310064 0.310064 0.965854
4
 1 0.312771 0.312771 0.968244
4
 1 0.315423 0.315423 0.963363
4
 1 0.30518 0.30518 0.968405
4
 1 0.320909 0.320909 0.964393
4
 1 0.321399 0.321399 0.960663
4
 1 0.322893 0.322893 0.963797
4
 1 0.327366 0.327366 0.95824
4
 1 0.314986 0.314986 0.970858
4
 1 0.317657 0.317657 0.965964
4
 1 0.319133 0.319133 0.969115
4
 1 0.314773 0.314773 0.974736
4
 1 0.315467 0.315467 0.967103
4
 1 0.309911 0.309911 0.976598
4
 1 0.312603 0.312603 0.975886
4
 1 0.323356 0.323356 0.967811
4
 1 0.325554 0.325554 0.962932
4
 1 0.31971 0.31971 0.972878
4
 1 0.316719 0.316719 0.974135
4
 1 0.330245 0.330245 0.961043
4
 1 0.333081 0.333081 0.959695
4
 1 0.332491 0.332491 0.956198
4
 1 0.328417 0.328417 0.965749
4
 1 0.327835 0.327835 0.96223
4
 1 0.32195 0.32195 0.972168
4
 0.97236 0.258151 0.258151 1
4
 0.96773 0.255709 0.255709 1
4
 0.953651 0.246591 0.246591 1
4
 0.957407 0.248042 0.248042 1
4
 0.957622 0.246852 0.246852 1
4
 0.949163 0.243153 0.243153 1
4
 0.958536 0.250058 0.250058 1
4
 0.950283 0.245129 0.245129 1
4
 0.966915 0.253932 0.253932 1
4
 0.967133 0.252714 0.252714 1
4
 0.962528 0.250323 0.250323 1
4
 1 0.274422 0.274422 0.994409
4
 0.976958 0.257903 0.257903 1
4
 0.95424 0.245388 0.245388 1
4
 0.99422 0.28456 0.28456 1
4
 1 0.292614 0.292614 0.988623
4
 1 0.294294 0.294294 0.987847
4
 0.974269 0.271282 0.271282 1
4
 0.958425 0.261329 0.261329 1
4
 1 0.31628 0.31628 0.981713
4
 1 0.315342 0.315342 0.978521
4
 1 0.309701 0.309701 0.9805
4
 1 0.303416 0.303416 0.982813
4
 1 0.298377 0.298377 0.988014
4
 1 0.299122 0.299122 0.982261
4
 0.970113 0.29873 0.29873 1
4
 0.966038 0.289457 0.289457 1
4
 0.964519 0.291974 0.291974 1
4
 0.964357 0.293029 0.293029 1
4
 0.963437 0.289754 0.289754 1
4
 0.962142 0.280396 0.280396 1
4
 0.958261 0.271166 0.271166 1
4
 0.957238 0.275588 0.275588 1
4
 0.956379 0.273546 0.273546 1
4
 0.962197 0.27497 0.27497 1
4
 0.974425 0.308873 0.308873 1
4
 0.966416 0.297755 0.297755 1
4
 0.95912 0.280109 0.280109 1
4
 0.961438 0.285288 0.285288 1
4
 0.960575 0.282702 0.282702 1
4
 0.979911 0.317162 0.317162 1
4
 0.966205 0.270709 0.270709 1
4
 0.974925 0.276463 0.276463 1
4
 0.95907 0.267209 0.267209 1
4
 0.957134 0.262774 0.262774 1
4
 0.993103 0.288584 0.288584 1
4
 0.983668 0.282207 0.282207 1
4
 1 0.294795 0.294795 0.996707
4
 0.995048 0.328531 0.328531 1
4
 1 0.333654 0.333654 0.996883
4
 0.987201 0.322928 0.322928 1
4
 1 0.336776 0.336776 0.989244
4
 1 0.334214 0.334214 0.99119
4
 1 0.335305 0.335305 0.9878
4
 0.947299 0.245696 0.245696 1
4
 0.941995 0.238478 0.238478 1
4
 0.942471 0.241483 0.241483 1
4
 0.942154 0.240008 0.240008 1
4
 0.954343 0.262118 0.262118 1
4
 0.960201 0.27028 0.27028 1
4
 0.950601 0.253725 0.253725 1
4
 0.943953 0.245464 0.245464 1
4
 0.944801 0.247296 0.247296 1
4
 0.955839 0.286719 0.286719 1
4
 0.955677 0.287755 0.287755 1
4
 0.948513 0.284244 0.284244 1
4
 0.94926 0.280901 0.280901 1
4
 0.960843 0.291021 0.291021 1
4
 0.959927 0.287769 0.287769 1
4
 0.954391 0.284088 0.284088 1
4
 0.949049 0.271636 0.271636 1
4
 0.953376 0.273265 0.273265 1
4
 0.950062 0.27359 0.27359 1
4
 0.95568 0.277855 0.277855 1
4
 0.943259 0.266081 0.266081 1
4
 0.947559 0.267677 0.267677 1
4
 0.948197 0.269623 0.269623 1
4
 0.944901 0.269944 0.269944 1
4
 0.925634 0.234536 0.234536 1
4
 0.926258 0.236242 0.236242 1
4
 0.921227 0.230389 0.230389 1
4
 1 0.30111 0.30111 0.970636
4
 1 0.297137 0.297137 0.97665
4
 1 0.298842 0.298842 0.975883
4
 1 0.297217 0.297217 0.972818
4
 1 0.30067 0.30067 0.974842
4
 1 0.296703 0.296703 0.980882
4
 1 0.295089 0.295089 0.977802
4
 1 0.292995 0.292995 0.983253
4
 1 0.293074 0.293074 0.979395
4
 1 0.293354 0.293354 0.974567
4
 1 0.291492 0.291492 0.97945
4
 1 0.289424 0.289424 0.98491
4
 1 0.289701 0.289701 0.980054
4
 1 0.329509 0.329509 0.994032
4
 1 0.330574 0.330574 0.99041
4
 1 0.32735 0.32735 0.994701
4
 0.934095 0.233044 0.233044 1
4
 0.934252 0.234539 0.234539 1
4
 0.928551 0.23128 0.23128 1
4
 0.92574 0.228194 0.228194 1
4
 0.938353 0.236798 0.236798 1
4
 0.933726 0.238169 0.238169 1
4
 0.927716 0.233426 0.233426 1
4
 0.928967 0.236833 0.236833 1
4
 0.934565 0.239947 0.239947 1
4
 0.923922 0.230965 0.230965 1
4
 0.938826 0.239782 0.239782 1
4
 0.933098 0.23645 0.23645 1
4
 0.939986 0.243056 0.243056 1
4
 0.932784 0.235006 0.235006 1
4
 0.924286 0.228648 0.228648 1
4
 0.9233 0.229298 0.229298 1
4
 0.920505 0.226238 0.226238 1
4
 0.935195 0.241692 0.241692 1
4
 0.969574 0.277698 0.277698 1
4
 0.979973 0.284721 0.284721 1
4
 0.957989 0.282993 0.282993 1
4
 0.95332 0.281929 0.281929 1
4
 0.953909 0.281022 0.281022 1
4
 0.951503 0.276123 0.276123 1
4
 0.947451 0.2742 0.2742 1
4
 0.953053 0.278475 0.278475 1
4
 0.948408 0.277428 0.277428 1
1
 1

